16108
1 0 1 0 0 1 0 0 1 0 0 1 0 1 1 0 0 1 0 0 1 0 0 0 1 1 0 0 0 0
20 11 20 2 20 5 2 24 14 17 25 8 8 20 2 14 14 17 25 11 2 0 5 0 11 8 2 24 11 24 5 25 20 25 20 20 24 24 0 14 0 14 24 8 24 14 0 13 11 8 5 14 14 5 13 20 17 11 0 14 0 5 20 11 11 11 24 0 25 25 13 20 11 17 24 8 25 20 14 5 13 0 13 17 17 17 17 0 20 5 2 24 17 11 17 5 2 2 25 13 8 17 17 25 2 25 17 11 14 8 14 14 2 11 11 25 24 24 24 24 5 8 25 13 8 0 5 5 0 25 0 0 5 25 8 14 0 5 20 17 0 8 20 17 8 25 25 5 2 5
